% seed = 9528073

mint = 48;
% maxt = 132;

nActs = 22;
dur = [0,9,8,9,2,6,1,10,8,3,7,10,2,1,10,10,6,5,9,9,7,0];

nSkills = 4;
sreq = [| 0,0,0,0,
	| 1,1,0,0,
	| 0,3,1,0,
	| 3,0,3,0,
	| 1,3,0,0,
	| 3,0,2,0,
	| 1,0,1,0,
	| 3,3,0,0,
	| 0,2,3,0,
	| 0,3,0,2,
	| 1,2,0,0,
	| 0,0,1,3,
	| 0,3,0,2,
	| 1,0,0,2,
	| 0,2,0,2,
	| 0,0,3,3,
	| 0,1,3,0,
	| 3,1,0,0,
	| 1,0,0,2,
	| 0,1,1,0,
	| 2,1,0,0,
	| 0,0,0,0, |];

nResources = 10;
mastery = [| true,true,true,false,
	| true,true,false,true,
	| true,false,false,false,
	| false,true,true,false,
	| true,false,false,true,
	| false,true,true,true,
	| false,true,true,false,
	| false,true,false,true,
	| false,true,true,false,
	| true,false,true,true, |];

nPrecs = 31;
pred = [1,1,1,2,3,3,4,5,5,5,6,7,7,7,8,8,9,9,10,11,11,12,13,14,15,16,17,18,19,20,21];
succ = [2,3,4,21,9,5,6,17,6,7,20,12,13,8,10,18,11,14,14,21,15,19,16,18,17,19,20,20,22,22,22];

nUnrels = 120;
unpred = [2,2,2,2,2,2,2,2,2,2,2,2,2,2,2,2,2,2,3,4,4,4,4,4,4,4,4,4,4,4,4,4,4,4,5,5,5,5,6,6,6,6,6,6,6,6,6,6,6,6,6,6,7,7,7,7,7,8,8,8,8,8,8,8,8,8,9,9,9,9,9,10,10,10,10,10,10,10,10,11,11,11,11,11,11,12,12,12,12,12,12,12,12,13,13,13,13,13,13,14,14,14,14,14,15,15,15,15,16,16,16,16,17,17,17,18,18,19,19,20];
unsucc = [3,4,5,6,7,8,9,10,11,12,13,14,15,16,17,18,19,20,4,5,7,8,9,10,11,12,13,14,15,16,17,18,19,21,9,11,15,21,7,8,9,10,11,12,13,14,15,16,17,18,19,21,9,11,15,17,21,9,11,12,13,15,16,17,19,21,10,12,13,16,19,11,12,13,15,16,17,19,21,12,13,14,16,18,19,13,14,15,16,17,18,20,21,14,15,17,18,20,21,15,16,17,19,21,16,18,19,21,17,18,20,21,18,19,21,19,21,20,21,21];

USEFUL_RES = [{},
	{1,2,3,4,5,6,7,8,9,10},
	{1,2,4,6,7,8,9,10},
	{1,2,3,4,5,6,7,9,10},
	{1,2,3,4,5,6,7,8,9,10},
	{1,2,3,4,5,6,7,9,10},
	{1,2,3,4,5,6,7,9,10},
	{1,2,3,4,5,6,7,8,9,10},
	{1,2,4,6,7,8,9,10},
	{1,2,4,5,6,7,8,9,10},
	{1,2,3,4,5,6,7,8,9,10},
	{1,2,4,5,6,7,8,9,10},
	{1,2,4,5,6,7,8,9,10},
	{1,2,3,5,6,8,10},
	{1,2,4,5,6,7,8,9,10},
	{1,2,4,5,6,7,8,9,10},
	{1,2,4,6,7,8,9,10},
	{1,2,3,4,5,6,7,8,9,10},
	{1,2,3,5,6,8,10},
	{1,2,4,6,7,8,9,10},
	{1,2,3,4,5,6,7,8,9,10},
	{}];

POTENTIAL_ACT = [{2,3,4,5,6,7,8,9,10,11,12,13,14,15,16,17,18,19,20,21},
	{2,3,4,5,6,7,8,9,10,11,12,13,14,15,16,17,18,19,20,21},
	{2,4,5,6,7,8,11,14,18,19,21},
	{2,3,4,5,6,7,8,9,10,11,12,13,15,16,17,18,20,21},
	{2,4,5,6,7,8,10,11,12,13,14,15,16,18,19,21},
	{2,3,4,5,6,7,8,9,10,11,12,13,14,15,16,17,18,19,20,21},
	{2,3,4,5,6,7,8,9,10,11,12,13,15,16,17,18,20,21},
	{2,3,5,8,9,10,11,12,13,14,15,16,17,18,19,20,21},
	{2,3,4,5,6,7,8,9,10,11,12,13,15,16,17,18,20,21},
	{2,3,4,5,6,7,8,9,10,11,12,13,14,15,16,17,18,19,20,21}];
